# Solution for model icep
# Objective value = 67
flowLmbda[0,0] 3
flowLmbda[1,0] 3
flowBeta[0,0,0,0] 0
flowBeta[0,0,0,1] 7
flowBeta[0,0,1,0] 0
flowBeta[0,0,1,1] 0
flowBeta[0,1,0,0] 0
flowBeta[0,1,0,1] 0
flowBeta[0,1,1,0] 0
flowBeta[0,1,1,1] 12
flowBeta[0,2,0,0] 9
flowBeta[0,2,0,1] 0
flowBeta[0,2,1,0] 3
flowBeta[0,2,1,1] 0
flowBeta[0,3,0,0] 0
flowBeta[0,3,0,1] 0
flowBeta[0,3,1,0] 12
flowBeta[0,3,1,1] 0
flowBeta[0,4,0,0] 0
flowBeta[0,4,0,1] 0
flowBeta[0,4,1,0] 0
flowBeta[0,4,1,1] 0
flowBeta[1,0,0,0] 0
flowBeta[1,0,0,1] 11
flowBeta[1,0,1,0] 0
flowBeta[1,0,1,1] 0
flowBeta[1,1,0,0] 0
flowBeta[1,1,0,1] 0
flowBeta[1,1,1,0] 0
flowBeta[1,1,1,1] 0
flowBeta[1,2,0,0] 0
flowBeta[1,2,0,1] 0
flowBeta[1,2,1,0] 0
flowBeta[1,2,1,1] 0
flowBeta[1,3,0,0] 0
flowBeta[1,3,0,1] 0
flowBeta[1,3,1,0] 0
flowBeta[1,3,1,1] 0
flowBeta[1,4,0,0] 0
flowBeta[1,4,0,1] 0
flowBeta[1,4,1,0] 0
flowBeta[1,4,1,1] 0
flowBeta[2,0,0,0] 0
flowBeta[2,0,0,1] 0
flowBeta[2,0,1,0] 0
flowBeta[2,0,1,1] 0
flowBeta[2,1,0,0] 0
flowBeta[2,1,0,1] 0
flowBeta[2,1,1,0] 0
flowBeta[2,1,1,1] 0
flowBeta[2,2,0,0] 0
flowBeta[2,2,0,1] 0
flowBeta[2,2,1,0] 0
flowBeta[2,2,1,1] 0
flowBeta[2,3,0,0] 0
flowBeta[2,3,0,1] 0
flowBeta[2,3,1,0] 0
flowBeta[2,3,1,1] 0
flowBeta[2,4,0,0] 0
flowBeta[2,4,0,1] 0
flowBeta[2,4,1,0] 0
flowBeta[2,4,1,1] 0
flowGamma[0,0,0,0] 0
flowGamma[0,0,0,1] 0
flowGamma[0,0,1,0] 0
flowGamma[0,0,1,1] 7
flowGamma[0,1,0,0] 0
flowGamma[0,1,0,1] 0
flowGamma[0,1,1,0] 12
flowGamma[0,1,1,1] 0
flowGamma[0,2,0,0] 12
flowGamma[0,2,0,1] 0
flowGamma[0,2,1,0] 0
flowGamma[0,2,1,1] 0
flowGamma[0,3,0,0] 12
flowGamma[0,3,0,1] 0
flowGamma[0,3,1,0] 0
flowGamma[0,3,1,1] 0
flowGamma[0,4,0,0] 0
flowGamma[0,4,0,1] 0
flowGamma[0,4,1,0] 0
flowGamma[0,4,1,1] 0
flowGamma[1,0,0,0] 0
flowGamma[1,0,0,1] 0
flowGamma[1,0,1,0] 11
flowGamma[1,0,1,1] 0
flowGamma[1,1,0,0] 0
flowGamma[1,1,0,1] 0
flowGamma[1,1,1,0] 0
flowGamma[1,1,1,1] 0
flowGamma[1,2,0,0] 0
flowGamma[1,2,0,1] 0
flowGamma[1,2,1,0] 0
flowGamma[1,2,1,1] 0
flowGamma[1,3,0,0] 0
flowGamma[1,3,0,1] 0
flowGamma[1,3,1,0] 0
flowGamma[1,3,1,1] 0
flowGamma[1,4,0,0] 0
flowGamma[1,4,0,1] 0
flowGamma[1,4,1,0] 0
flowGamma[1,4,1,1] 0
flowGamma[2,0,0,0] 0
flowGamma[2,0,0,1] 0
flowGamma[2,0,1,0] 0
flowGamma[2,0,1,1] 0
flowGamma[2,1,0,0] 0
flowGamma[2,1,0,1] 0
flowGamma[2,1,1,0] 0
flowGamma[2,1,1,1] 0
flowGamma[2,2,0,0] 0
flowGamma[2,2,0,1] 0
flowGamma[2,2,1,0] 0
flowGamma[2,2,1,1] 0
flowGamma[2,3,0,0] 0
flowGamma[2,3,0,1] 0
flowGamma[2,3,1,0] 0
flowGamma[2,3,1,1] 0
flowGamma[2,4,0,0] 0
flowGamma[2,4,0,1] 0
flowGamma[2,4,1,0] 0
flowGamma[2,4,1,1] 0
flowEpsilon[0,0,0,0] 0
flowEpsilon[0,0,1,0] 7
flowEpsilon[0,1,0,0] 12
flowEpsilon[0,1,1,0] 0
flowEpsilon[0,2,0,0] 12
flowEpsilon[0,2,1,0] 0
flowEpsilon[0,3,0,0] 12
flowEpsilon[0,3,1,0] 0
flowEpsilon[0,4,0,0] 0
flowEpsilon[0,4,1,0] 0
flowEpsilon[1,0,0,0] 11
flowEpsilon[1,0,1,0] 0
flowEpsilon[1,1,0,0] 0
flowEpsilon[1,1,1,0] 0
flowEpsilon[1,2,0,0] 0
flowEpsilon[1,2,1,0] 0
flowEpsilon[1,3,0,0] 0
flowEpsilon[1,3,1,0] 0
flowEpsilon[1,4,0,0] 0
flowEpsilon[1,4,1,0] 0
flowEpsilon[2,0,0,0] 0
flowEpsilon[2,0,1,0] 0
flowEpsilon[2,1,0,0] 0
flowEpsilon[2,1,1,0] 0
flowEpsilon[2,2,0,0] 0
flowEpsilon[2,2,1,0] 0
flowEpsilon[2,3,0,0] 0
flowEpsilon[2,3,1,0] 0
flowEpsilon[2,4,0,0] 0
flowEpsilon[2,4,1,0] 0
psiSelect[0,0,0] 0
psiSelect[0,0,1] 1
psiSelect[0,1,0] 0
psiSelect[0,1,1] 0
psiSelect[1,0,0] 0
psiSelect[1,0,1] 0
psiSelect[1,1,0] 0
psiSelect[1,1,1] 1
psiSelect[2,0,0] 0
psiSelect[2,0,1] 0
psiSelect[2,1,0] 0
psiSelect[2,1,1] 0
gammaSelect[0,0,0,0] 0
gammaSelect[0,0,0,1] 0
gammaSelect[0,0,1,0] 0
gammaSelect[0,0,1,1] 1
gammaSelect[0,1,0,0] 0
gammaSelect[0,1,0,1] 0
gammaSelect[0,1,1,0] 1
gammaSelect[0,1,1,1] 0
gammaSelect[0,2,0,0] 1
gammaSelect[0,2,0,1] 0
gammaSelect[0,2,1,0] 0
gammaSelect[0,2,1,1] 0
gammaSelect[0,3,0,0] 1
gammaSelect[0,3,0,1] 0
gammaSelect[0,3,1,0] 0
gammaSelect[0,3,1,1] 0
gammaSelect[0,4,0,0] 0
gammaSelect[0,4,0,1] 0
gammaSelect[0,4,1,0] 0
gammaSelect[0,4,1,1] 0
gammaSelect[1,0,0,0] 0
gammaSelect[1,0,0,1] 0
gammaSelect[1,0,1,0] 1
gammaSelect[1,0,1,1] 0
gammaSelect[1,1,0,0] 0
gammaSelect[1,1,0,1] 0
gammaSelect[1,1,1,0] 0
gammaSelect[1,1,1,1] 0
gammaSelect[1,2,0,0] 0
gammaSelect[1,2,0,1] 0
gammaSelect[1,2,1,0] 0
gammaSelect[1,2,1,1] 0
gammaSelect[1,3,0,0] 0
gammaSelect[1,3,0,1] 0
gammaSelect[1,3,1,0] 0
gammaSelect[1,3,1,1] 0
gammaSelect[1,4,0,0] 0
gammaSelect[1,4,0,1] 0
gammaSelect[1,4,1,0] 0
gammaSelect[1,4,1,1] 0
gammaSelect[2,0,0,0] 0
gammaSelect[2,0,0,1] 0
gammaSelect[2,0,1,0] 0
gammaSelect[2,0,1,1] 0
gammaSelect[2,1,0,0] 0
gammaSelect[2,1,0,1] 0
gammaSelect[2,1,1,0] 0
gammaSelect[2,1,1,1] 0
gammaSelect[2,2,0,0] 0
gammaSelect[2,2,0,1] 0
gammaSelect[2,2,1,0] 0
gammaSelect[2,2,1,1] 0
gammaSelect[2,3,0,0] 0
gammaSelect[2,3,0,1] 0
gammaSelect[2,3,1,0] 0
gammaSelect[2,3,1,1] 0
gammaSelect[2,4,0,0] 0
gammaSelect[2,4,0,1] 0
gammaSelect[2,4,1,0] 0
gammaSelect[2,4,1,1] 0
deltaSelect[0,0,0,0] 0
deltaSelect[0,0,0,1] 0
deltaSelect[0,0,1,0] 0
deltaSelect[0,0,1,1] 1
deltaSelect[0,1,0,0] 1
deltaSelect[0,1,0,1] 0
deltaSelect[0,1,1,0] 0
deltaSelect[0,1,1,1] 0
deltaSelect[0,2,0,0] 1
deltaSelect[0,2,0,1] 0
deltaSelect[0,2,1,0] 0
deltaSelect[0,2,1,1] 0
deltaSelect[0,3,0,0] 0
deltaSelect[0,3,0,1] 0
deltaSelect[0,3,1,0] 0
deltaSelect[0,3,1,1] 0
deltaSelect[0,4,0,0] 1
deltaSelect[0,4,0,1] 0
deltaSelect[0,4,1,0] 0
deltaSelect[0,4,1,1] 0
deltaSelect[1,0,0,0] 0
deltaSelect[1,0,0,1] 0
deltaSelect[1,0,1,0] 0
deltaSelect[1,0,1,1] 0
deltaSelect[1,1,0,0] 0
deltaSelect[1,1,0,1] 0
deltaSelect[1,1,1,0] 0
deltaSelect[1,1,1,1] 0
deltaSelect[1,2,0,0] 0
deltaSelect[1,2,0,1] 0
deltaSelect[1,2,1,0] 0
deltaSelect[1,2,1,1] 0
deltaSelect[1,3,0,0] 0
deltaSelect[1,3,0,1] 0
deltaSelect[1,3,1,0] 0
deltaSelect[1,3,1,1] 0
deltaSelect[1,4,0,0] 0
deltaSelect[1,4,0,1] 1
deltaSelect[1,4,1,0] 1
deltaSelect[1,4,1,1] 0
deltaSelect[2,0,0,0] 0
deltaSelect[2,0,0,1] 0
deltaSelect[2,0,1,0] 0
deltaSelect[2,0,1,1] 0
deltaSelect[2,1,0,0] 0
deltaSelect[2,1,0,1] 0
deltaSelect[2,1,1,0] 0
deltaSelect[2,1,1,1] 0
deltaSelect[2,2,0,0] 0
deltaSelect[2,2,0,1] 0
deltaSelect[2,2,1,0] 0
deltaSelect[2,2,1,1] 0
deltaSelect[2,3,0,0] 0
deltaSelect[2,3,0,1] 0
deltaSelect[2,3,1,0] 0
deltaSelect[2,3,1,1] 0
deltaSelect[2,4,0,0] 0
deltaSelect[2,4,0,1] 0
deltaSelect[2,4,1,0] 0
deltaSelect[2,4,1,1] 0
timeForResourceI[0] 67
timeForResourceI[1] 64
timeForResourceI[2] 0
totalTime 67
